c File:  tomek
c
c SOURCE: Tomasz Fejcak
c
c DESCRIPTION: Coloring problem generated from a register allocation
c              problem based on real code.
c
c graph #2 from register allocation file -
p edge 8 11
e 1 2
e 1 3
e 1 4
e 1 5
e 2 4
e 4 6
e 6 7
e 6 8
e 7 8
e 6 5
e 5 3